NAME : X-n106-k14
COMMENT : "Generated by Uchoa, Pecin, Pessoa, Poggi, Subramanian, and Vidal (2013)"
TYPE : CVRP
DIMENSION : 106
EDGE_WEIGHT_TYPE : EUC_2D
CAPACITY : 600
NODE_COORD_SECTION
1 0 0
2 615 190
3 890 200
4 983 684
5 959 743
6 569 146
7 969 841
8 607 256
9 936 274
10 650 221
11 943 547
12 789 172
13 632 209
14 849 163
15 829 283
16 618 147
17 925 627
18 925 192
19 903 460
20 666 368
21 906 622
22 833 185
23 411 136
24 989 691
25 601 221
26 429 500
27 522 218
28 760 346
29 674 183
30 720 99
31 951 705
32 898 154
33 953 661
34 425 212
35 775 159
36 900 649
37 943 290
38 724 315
39 927 705
40 865 817
41 872 161
42 966 478
43 974 694
44 669 159
45 603 140
46 598 122
47 715 230
48 777 693
49 890 231
50 775 230
51 908 849
52 625 138
53 490 185
54 643 163
55 849 183
56 998 675
57 619 495
58 844 67
59 861 276
60 888 679
61 641 141
62 869 766
63 495 244
64 852 110
65 976 143
66 921 783
67 688 211
68 857 199
69 758 636
70 990 213
71 973 806
72 748 240
73 737 95
74 933 664
75 770 172
76 616 250
77 641 146
78 867 199
79 544 327
80 711 277
81 893 778
82 992 868
83 685 11
84 869 204
85 646 260
86 849 185
87 918 400
88 645 144
89 923 339
90 931 686
91 582 212
92 1000 309
93 572 192
94 676 183
95 989 59
96 798 642
97 582 39
98 686 188
99 995 720
100 802 185
101 603 126
102 657 185
103 574 195
104 661 174
105 614 195
106 961 162
PICKUP_AND_DELIVERY_SECTION
1 0 0 1000000000 0 0 0
2 0 0 1000000000 0 0 81
3 0 0 1000000000 0 0 64
4 0 0 1000000000 0 0 51
5 0 0 1000000000 0 0 61
6 0 0 1000000000 0 0 71
7 0 0 1000000000 0 0 83
8 0 0 1000000000 0 0 92
9 0 0 1000000000 0 0 66
10 0 0 1000000000 0 0 92
11 0 0 1000000000 0 78 0
12 0 0 1000000000 0 0 98
13 0 0 1000000000 0 0 88
14 0 0 1000000000 0 0 70
15 0 0 1000000000 0 0 72
16 0 0 1000000000 0 0 92
17 0 0 1000000000 0 0 84
18 0 0 1000000000 0 0 51
19 0 0 1000000000 0 0 81
20 0 0 1000000000 0 0 71
21 0 0 1000000000 0 98 0
22 0 0 1000000000 0 0 70
23 0 0 1000000000 0 0 53
24 0 0 1000000000 0 0 76
25 0 0 1000000000 0 0 83
26 0 0 1000000000 0 0 83
27 0 0 1000000000 0 0 77
28 0 0 1000000000 0 0 82
29 0 0 1000000000 0 0 88
30 0 0 1000000000 0 0 58
31 0 0 1000000000 0 97 0
32 0 0 1000000000 0 0 53
33 0 0 1000000000 0 0 52
34 0 0 1000000000 0 0 89
35 0 0 1000000000 0 0 87
36 0 0 1000000000 0 0 50
37 0 0 1000000000 0 0 73
38 0 0 1000000000 0 0 58
39 0 0 1000000000 0 0 100
40 0 0 1000000000 0 0 59
41 0 0 1000000000 0 67 0
42 0 0 1000000000 0 0 75
43 0 0 1000000000 0 0 65
44 0 0 1000000000 0 0 80
45 0 0 1000000000 0 0 65
46 0 0 1000000000 0 0 63
47 0 0 1000000000 0 0 59
48 0 0 1000000000 0 0 75
49 0 0 1000000000 0 0 56
50 0 0 1000000000 0 0 76
51 0 0 1000000000 0 83 0
52 0 0 1000000000 0 0 85
53 0 0 1000000000 0 0 96
54 0 0 1000000000 0 0 58
55 0 0 1000000000 0 0 50
56 0 0 1000000000 0 0 54
57 0 0 1000000000 0 0 81
58 0 0 1000000000 0 0 82
59 0 0 1000000000 0 0 99
60 0 0 1000000000 0 0 67
61 0 0 1000000000 0 88 0
62 0 0 1000000000 0 0 92
63 0 0 1000000000 0 0 97
64 0 0 1000000000 0 0 50
65 0 0 1000000000 0 0 62
66 0 0 1000000000 0 0 59
67 0 0 1000000000 0 0 83
68 0 0 1000000000 0 0 86
69 0 0 1000000000 0 0 86
70 0 0 1000000000 0 0 55
71 0 0 1000000000 0 99 0
72 0 0 1000000000 0 0 88
73 0 0 1000000000 0 0 99
74 0 0 1000000000 0 0 80
75 0 0 1000000000 0 0 98
76 0 0 1000000000 0 0 87
77 0 0 1000000000 0 0 81
78 0 0 1000000000 0 0 58
79 0 0 1000000000 0 0 57
80 0 0 1000000000 0 0 87
81 0 0 1000000000 0 50 0
82 0 0 1000000000 0 0 96
83 0 0 1000000000 0 0 63
84 0 0 1000000000 0 0 75
85 0 0 1000000000 0 0 79
86 0 0 1000000000 0 0 100
87 0 0 1000000000 0 0 99
88 0 0 1000000000 0 0 95
89 0 0 1000000000 0 0 57
90 0 0 1000000000 0 0 59
91 0 0 1000000000 0 94 0
92 0 0 1000000000 0 0 91
93 0 0 1000000000 0 0 85
94 0 0 1000000000 0 0 95
95 0 0 1000000000 0 0 50
96 0 0 1000000000 0 0 53
97 0 0 1000000000 0 0 66
98 0 0 1000000000 0 0 56
99 0 0 1000000000 0 0 63
100 0 0 1000000000 0 0 86
101 0 0 1000000000 0 71 0
102 0 0 1000000000 0 0 50
103 0 0 1000000000 0 0 65
104 0 0 1000000000 0 0 78
105 0 0 1000000000 0 0 56
106 0 0 1000000000 0 0 72
